1219
0 83 161 240 309 362 424 572 642 656 753 848 897 1026 1111 
0 131 172 194 223 275 346 362 455 509 572 584 669 731 776 
0 60 172 305 362 505 586 672 753 813 870 936 960 1058 1150 
0 35 243 278 284 309 366 367 411 505 535 630 723 774 826 
35 131 170 245 343 366 517 586 618 723 848 870 881 931 1026 
0 161 189 232 279 336 424 542 555 562 611 634 731 752 851 
